
Gurobi 7.0.1 (win64, Python) logging started 12/28/16 04:47:09

Changed value of parameter MIPGap to 0.1
   Prev: 0.0001  Min: 0.0  Max: 1e+100  Default: 0.0001
Changed value of parameter TimeLimit to 100.0
   Prev: 1e+100  Min: 0.0  Max: 1e+100  Default: 1e+100
Changed value of parameter Method to 2
   Prev: -1  Min: -1  Max: 4  Default: -1
Changed value of parameter MIPFocus to 1
   Prev: 0  Min: 0  Max: 3  Default: 0
Optimize a model with 4420 rows, 14945 columns and 29890 nonzeros
Variable types: 0 continuous, 14945 integer (14945 binary)
Coefficient statistics:
  Matrix range     [1e+00, 2e+01]
  Objective range  [1e+00, 1e+00]
  Bounds range     [1e+00, 1e+00]
  RHS range        [3e+01, 3e+01]
Found heuristic solution: objective 0
Presolve time: 0.07s
Presolved: 4420 rows, 14945 columns, 29890 nonzeros
Variable types: 0 continuous, 14945 integer (14945 binary)
Presolved: 4420 rows, 14945 columns, 29890 nonzeros

Root barrier log...

Ordering time: 0.00s

Barrier statistics:
 AA' NZ     : 1.495e+04
 Factor NZ  : 4.335e+04 (roughly 8 MBytes of memory)
 Factor Ops : 1.378e+06 (less than 1 second per iteration)
 Threads    : 1

                  Objective                Residual
Iter       Primal          Dual         Primal    Dual     Compl     Time
   0  -1.21293534e+04 -1.06442861e+04  1.05e+02 0.00e+00  3.39e+00     0s
   1  -3.91616077e+03 -8.38989255e+03  2.53e+01 6.66e-16  8.50e-01     0s
   2  -1.60449910e+03 -3.91445060e+03  4.73e+00 7.77e-16  1.68e-01     0s
   3  -1.09574631e+03 -1.77889973e+03  8.45e-01 1.12e-15  3.51e-02     0s
   4  -1.02868364e+03 -1.26960935e+03  1.79e-01 8.92e-16  1.02e-02     0s
   5  -1.01984625e+03 -1.09533825e+03  5.66e-02 1.18e-15  3.14e-03     0s
   6  -1.01711032e+03 -1.03133799e+03  1.80e-02 1.08e-15  6.51e-04     0s
   7  -1.01691962e+03 -1.01789923e+03  2.87e-04 8.29e-16  3.53e-05     0s
   8  -1.01699984e+03 -1.01700091e+03  1.43e-14 1.13e-15  3.55e-08     0s
   9  -1.01700000e+03 -1.01700000e+03  3.57e-14 1.65e-15  3.56e-14     0s

Barrier solved model in 9 iterations and 0.20 seconds
Optimal objective -1.01700000e+03


Root relaxation: objective -1.017000e+03, 8543 iterations, 0.18 seconds

    Nodes    |    Current Node    |     Objective Bounds      |     Work
 Expl Unexpl |  Obj  Depth IntInf | Incumbent    BestBd   Gap | It/Node Time

     0     0 -1017.0000    0  173    0.00000 -1017.0000      -     -    0s
H    0     0                    -999.0000000 -1017.0000  1.80%     -    0s

Explored 0 nodes (12102 simplex iterations) in 0.43 seconds
Thread count was 4 (of 4 available processors)

Solution count 2: -999 0 
Pool objective bound -1017

Optimal solution found (tolerance 1.00e-01)
Best objective -9.990000000000e+02, best bound -1.017000000000e+03, gap 1.8018%
